; benchmark generated from python API
(set-info :status unknown)
(declare-datatypes ((IntState 0)) (((Mk1 (val1 Int)) (Mk2 (val2 Int)))))
 (declare-fun |c_hanoi_#t~ret0| () Int)
(declare-fun |c_hanoi_#in~n| () Int)
(declare-fun c_hanoi_~n () Int)
(assert
 (let (($x178 (exists ((v_nnf_39_st IntState) (val!42 Int) )(exists ((v_nnf_37_st IntState) (val!43 Int) )(exists ((v_nnf_38_st IntState) (val!44 Int) )(let (($x153 (<= |c_hanoi_#in~n| 5)))
 (let (($x13 (and $x153 (<= (+ (* 2 (val2 v_nnf_38_st)) 1) (val2 v_nnf_39_st)) (<= (+ (* 2 (val2 v_nnf_39_st)) 1) |c_hanoi_#t~ret0|) (<= (+ (* 2 (val2 v_nnf_37_st)) 1) (val2 v_nnf_38_st)) (<= 1 (val2 v_nnf_37_st)))))
 (let (($x52 (not (= v_nnf_38_st (Mk1 val!44)))))
 (let (($x173 (not (= v_nnf_37_st (Mk1 val!43)))))
 (let (($x159 (not (= v_nnf_39_st (Mk1 val!42)))))
 (and $x159 $x173 $x52 $x13)))))))
 )
 )
 ))
 (let (($x130 (exists ((v_nnf_35 Int) )(exists ((v_nnf_36 Int) )(exists ((v_nnf_34 Int) )(let (($x71 (<= (+ (* 2 v_nnf_36) 1) v_nnf_34)))
 (let (($x82 (<= c_hanoi_~n 5)))
 (and (<= (+ (* 2 v_nnf_34) 1) |c_hanoi_#t~ret0|) $x82 (<= 1 v_nnf_35) (<= (+ (* 2 v_nnf_35) 1) v_nnf_36) $x71 (<= |c_hanoi_#in~n| c_hanoi_~n)))))
 )
 )
 ))
 (and $x130 (not $x178)))))
(check-sat)
